NAME : mr11
COMMENT : 11-city problem (DISC)
TYPE : TSP
DIMENSION : 11
EDGE_WEIGHT_TYPE : EUC_2D
NODE_COORD_SECTION
1 19 11
2 2 90
3 47 86
4 73 17
5 43 64
6 49 3
7 2 12
8 49 32
9 95 16
10 86 76
11 73 82
EOF
